TCS_Benchmarks/redos_fix/corpus1_output_distinct_4090_4089_1_0.smt2
(set-logic QF_S)
(declare-const x String)
(assert (str.in.re x (re.inter  (re.++ (re.* (re.union (re.range "\u{00}" "\u{09}") (re.range "\u{0b}" "\u{0c}") (re.range "\u{0e}" "\u{84}") (re.range "\u{86}" "\u{ff}")) ) (re.+  (re.union (re.range "\u{61}" "\u{66}") (re.range "\u{30}" "\u{39}")) ))  (re.++ (re.* (re.union (re.range "\u{00}" "\u{09}") (re.range "\u{0b}" "\u{0c}") (re.range "\u{0e}" "\u{84}") (re.range "\u{86}" "\u{ff}")) ) (re.++  (re.++  (str.to.re "\u{20}") (re.++  (str.to.re "\u{61}") (re.++  (str.to.re "\u{74}") (re.++  (str.to.re "\u{20}") (re.++  (str.to.re "\u{72}") (re.++  (str.to.re "\u{65}") (re.++  (str.to.re "\u{6d}") (re.++  (str.to.re "\u{6f}") (re.++  (str.to.re "\u{74}") (re.++  (str.to.re "\u{65}") (re.++  (str.to.re "\u{20}") (re.++  (str.to.re "\u{30}") (re.++  (str.to.re "\u{78}") (re.opt  (str.to.re "\u{2d}") )))))))))))))) (re.+  (re.union (re.range "\u{61}" "\u{66}") (re.range "\u{30}" "\u{39}")) ))) )))
(check-sat)
(get-model)