TCS_Benchmarks/redos_fix/corpus1_output_distinct_4090_4089_1_0.txt
(.*)([a-f0-9]+)
(.*)( at remote 0x-?)([a-f0-9]+)